(set-info :source |
 Generated by Alive 0.1
 More info in N. P. Lopes, D. Menendez, S. Nagarakatte, J. Regehr.
 Provably Correct Peephole Optimizations with Alive. In PLDI'15.
|)

(set-info :status unknown)
(declare-fun %b () (_ BitVec 55))
(assert
 (let (($x14565 (not (bvult (_ bv1 55) (_ bv55 55)))))
 (let (($x15301 (= (bvadd ((_ zero_extend 1) %b) ((_ zero_extend 1) %b)) ((_ zero_extend 1) (bvadd %b %b)))))
 (and $x15301 $x14565))))
(check-sat)
